<?xml version = "1.0" standalone="yes"?>
<!-- This file has been generated by DOcplex version 2.23.222  -->
<CPLEXSolution version="1.0">
 <header
   problemName="CVRP"
   objectiveValue="12252.6"
  />
 <variables>
  <variable name="x_0_2" index="1" value="1.00000"/>
  <variable name="x_0_4" index="3" value="1.00000"/>
  <variable name="x_0_6" index="5" value="1.00000"/>
  <variable name="x_0_8" index="7" value="1.00000"/>
  <variable name="x_0_17" index="16" value="1.00000"/>
  <variable name="x_0_18" index="17" value="1.00000"/>
  <variable name="x_0_19" index="18" value="1.00000"/>
  <variable name="x_0_20" index="19" value="1.00000"/>
  <variable name="x_0_21" index="20" value="1.00000"/>
  <variable name="x_0_24" index="23" value="1.00000"/>
  <variable name="x_0_27" index="26" value="1.00000"/>
  <variable name="x_0_28" index="27" value="1.00000"/>
  <variable name="x_1_0" index="28" value="1.00000"/>
  <variable name="x_2_22" index="77" value="1.00000"/>
  <variable name="x_3_0" index="84" value="1.00000"/>
  <variable name="x_4_0" index="112" value="1.00000"/>
  <variable name="x_5_11" index="150" value="1.00000"/>
  <variable name="x_6_16" index="183" value="1.00000"/>
  <variable name="x_7_9" index="204" value="1.00000"/>
  <variable name="x_8_0" index="224" value="1.00000"/>
  <variable name="x_9_0" index="252" value="1.00000"/>
  <variable name="x_10_0" index="280" value="1.00000"/>
  <variable name="x_11_10" index="318" value="1.00000"/>
  <variable name="x_12_14" index="349" value="1.00000"/>
  <variable name="x_13_0" index="364" value="1.00000"/>
  <variable name="x_14_26" index="417" value="1.00000"/>
  <variable name="x_15_7" index="427" value="1.00000"/>
  <variable name="x_16_0" index="448" value="1.00000"/>
  <variable name="x_17_5" index="481" value="1.00000"/>
  <variable name="x_18_1" index="505" value="1.00000"/>
  <variable name="x_19_0" index="532" value="1.00000"/>
  <variable name="x_20_13" index="573" value="1.00000"/>
  <variable name="x_21_0" index="588" value="1.00000"/>
  <variable name="x_22_3" index="619" value="1.00000"/>
  <variable name="x_23_25" index="668" value="1.00000"/>
  <variable name="x_24_23" index="695" value="1.00000"/>
  <variable name="x_25_0" index="700" value="1.00000"/>
  <variable name="x_26_0" index="728" value="1.00000"/>
  <variable name="x_27_15" index="771" value="1.00000"/>
  <variable name="x_28_12" index="796" value="1.00000"/>
  <variable name="u_1" index="812" value="54.00000"/>
  <variable name="u_2" index="813" value="21.00000"/>
  <variable name="u_3" index="814" value="54.00000"/>
  <variable name="u_4" index="815" value="53.00000"/>
  <variable name="u_5" index="816" value="42.00000"/>
  <variable name="u_6" index="817" value="21.00000"/>
  <variable name="u_7" index="818" value="46.00000"/>
  <variable name="u_8" index="819" value="52.00000"/>
  <variable name="u_9" index="820" value="52.00000"/>
  <variable name="u_10" index="821" value="54.00000"/>
  <variable name="u_11" index="822" value="53.00000"/>
  <variable name="u_12" index="823" value="37.00000"/>
  <variable name="u_13" index="824" value="54.00000"/>
  <variable name="u_14" index="825" value="48.00000"/>
  <variable name="u_15" index="826" value="36.00000"/>
  <variable name="u_16" index="827" value="54.00000"/>
  <variable name="u_17" index="828" value="41.00000"/>
  <variable name="u_18" index="829" value="29.00000"/>
  <variable name="u_19" index="830" value="54.00000"/>
  <variable name="u_20" index="831" value="31.00000"/>
  <variable name="u_21" index="832" value="49.00000"/>
  <variable name="u_22" index="833" value="35.00000"/>
  <variable name="u_23" index="834" value="51.00000"/>
  <variable name="u_24" index="835" value="16.00000"/>
  <variable name="u_25" index="836" value="54.00000"/>
  <variable name="u_26" index="837" value="54.00000"/>
  <variable name="u_27" index="838" value="30.00000"/>
  <variable name="u_28" index="839" value="28.00000"/>
 </variables>
</CPLEXSolution>
